NAME          
ROWS
 N  OBJ
 L  c1
COLUMNS
    MARKER    'MARKER'                 'INTORG'
    x[1]      c1        19
    x[1]      OBJ       -36
    x[2]      c1        579
    x[2]      OBJ       -662
    x[3]      c1        349
    x[3]      OBJ       -365
    x[4]      c1        320
    x[4]      OBJ       -289
    x[5]      c1        541
    x[5]      OBJ       -622
RHS
    rhs       c1        904
RANGES
BOUNDS
 BV bounds    x[1]
 BV bounds    x[2]
 BV bounds    x[3]
 BV bounds    x[4]
 BV bounds    x[5]
ENDATA
